cliques=[{134,21,124,105,56,77,92,0,115,11,67},{1,48,117,69,58,106,125,87,78,12},{107,136,49,31,126,2,79,88,118,13,93},{1,2,8,4,10,7,0,6,5,9,3},{1,2,8,4,10,7,0,6,5,9,3},{109,119,50,34,96,15,137,61,80,5,23,42},{51,24,62,97,43,81,16,70,35,6},{120,83,130,110,37,7,53,17,25,63,99,72},{1,2,8,4,10,7,0,6,5,9,3},{44,38,26,84,101,74,64,90,19,112,9},{85,122,39,54,20,27,10,113,139,102,65,91,131,75},{134,21,124,105,56,77,92,0,115,11,67},{1,48,117,69,58,106,125,87,78,12},{107,136,49,31,126,2,79,88,118,13,93},{20,14,18,12,16,17,15,13,19,11},{109,119,50,34,96,15,137,61,80,5,23,42},{51,24,62,97,43,81,16,70,35,6},{120,83,130,110,37,7,53,17,25,63,99,72},{20,14,18,12,16,17,15,13,19,11},{44,38,26,84,101,74,64,90,19,112,9},{85,122,39,54,20,27,10,113,139,102,65,91,131,75},{134,21,124,105,56,77,92,0,115,11,67},{29,24,21,26,27,25,22,28,23},{109,119,50,34,96,15,137,61,80,5,23,42},{51,24,62,97,43,81,16,70,35,6},{120,83,130,110,37,7,53,17,25,63,99,72},{44,38,26,84,101,74,64,90,19,112,9},{85,122,39,54,20,27,10,113,139,102,65,91,131,75},{29,24,21,26,27,25,22,28,23},{29,104,46,140,55,133,76,66,123},{39,38,33,34,31,37,40,32,30,35,36},{107,136,49,31,126,2,79,88,118,13,93},{39,38,33,34,31,37,40,32,30,35,36},{39,38,33,34,31,37,40,32,30,35,36},{109,119,50,34,96,15,137,61,80,5,23,42},{39,38,33,34,31,37,40,32,30,35,36},{39,38,33,34,31,37,40,32,30,35,36},{120,83,130,110,37,7,53,17,25,63,99,72},{39,38,33,34,31,37,40,32,30,35,36},{85,122,39,54,20,27,10,113,139,102,65,91,131,75},{39,38,33,34,31,37,40,32,30,35,36},{108,127,94,89,59,32,41,3},{109,119,50,34,96,15,137,61,80,5,23,42},{51,24,62,97,43,81,16,70,35,6},{44,38,26,84,101,74,64,90,19,112,9},{44,46,43,45,41,42},{29,104,46,140,55,133,76,66,123},{51,52,48,54,50,49,55,47,53},{1,48,117,69,58,106,125,87,78,12},{107,136,49,31,126,2,79,88,118,13,93},{51,52,48,54,50,49,55,47,53},{51,52,48,54,50,49,55,47,53},{51,52,48,54,50,49,55,47,53},{51,52,48,54,50,49,55,47,53},{85,122,39,54,20,27,10,113,139,102,65,91,131,75},{51,52,48,54,50,49,55,47,53},{134,21,124,105,56,77,92,0,115,11,67},{58,62,60,59,56,64,66,65,61,63,57},{1,48,117,69,58,106,125,87,78,12},{58,62,60,59,56,64,66,65,61,63,57},{58,62,60,59,56,64,66,65,61,63,57},{109,119,50,34,96,15,137,61,80,5,23,42},{51,24,62,97,43,81,16,70,35,6},{120,83,130,110,37,7,53,17,25,63,99,72},{44,38,26,84,101,74,64,90,19,112,9},{85,122,39,54,20,27,10,113,139,102,65,91,131,75},{29,104,46,140,55,133,76,66,123},{134,21,124,105,56,77,92,0,115,11,67},{71,69,76,74,68,73,70,67,72,75},{1,48,117,69,58,106,125,87,78,12},{51,24,62,97,43,81,16,70,35,6},{71,69,76,74,68,73,70,67,72,75},{120,83,130,110,37,7,53,17,25,63,99,72},{71,69,76,74,68,73,70,67,72,75},{44,38,26,84,101,74,64,90,19,112,9},{85,122,39,54,20,27,10,113,139,102,65,91,131,75},{29,104,46,140,55,133,76,66,123},{134,21,124,105,56,77,92,0,115,11,67},{1,48,117,69,58,106,125,87,78,12},{107,136,49,31,126,2,79,88,118,13,93},{109,119,50,34,96,15,137,61,80,5,23,42},{51,24,62,97,43,81,16,70,35,6},{85,83,78,84,81,77,79,82,80},{120,83,130,110,37,7,53,17,25,63,99,72},{44,38,26,84,101,74,64,90,19,112,9},{85,122,39,54,20,27,10,113,139,102,65,91,131,75},{135,116,47,68,30,86,57},{1,48,117,69,58,106,125,87,78,12},{107,136,49,31,126,2,79,88,118,13,93},{108,127,94,89,59,32,41,3},{44,38,26,84,101,74,64,90,19,112,9},{85,122,39,54,20,27,10,113,139,102,65,91,131,75},{104,94,95,97,101,96,98,92,102,93,103,99,100},{104,94,95,97,101,96,98,92,102,93,103,99,100},{104,94,95,97,101,96,98,92,102,93,103,99,100},{104,94,95,97,101,96,98,92,102,93,103,99,100},{104,94,95,97,101,96,98,92,102,93,103,99,100},{104,94,95,97,101,96,98,92,102,93,103,99,100},{104,94,95,97,101,96,98,92,102,93,103,99,100},{104,94,95,97,101,96,98,92,102,93,103,99,100},{104,94,95,97,101,96,98,92,102,93,103,99,100},{104,94,95,97,101,96,98,92,102,93,103,99,100},{85,122,39,54,20,27,10,113,139,102,65,91,131,75},{104,94,95,97,101,96,98,92,102,93,103,99,100},{104,94,95,97,101,96,98,92,102,93,103,99,100},{109,107,108,106,110,114,105,111,113,112},{1,48,117,69,58,106,125,87,78,12},{109,107,108,106,110,114,105,111,113,112},{109,107,108,106,110,114,105,111,113,112},{109,107,108,106,110,114,105,111,113,112},{109,107,108,106,110,114,105,111,113,112},{109,107,108,106,110,114,105,111,113,112},{109,107,108,106,110,114,105,111,113,112},{85,122,39,54,20,27,10,113,139,102,65,91,131,75},{109,107,108,106,110,114,105,111,113,112},{122,119,120,117,116,121,123,118,115},{122,119,120,117,116,121,123,118,115},{1,48,117,69,58,106,125,87,78,12},{107,136,49,31,126,2,79,88,118,13,93},{109,119,50,34,96,15,137,61,80,5,23,42},{120,83,130,110,37,7,53,17,25,63,99,72},{122,119,120,117,116,121,123,118,115},{85,122,39,54,20,27,10,113,139,102,65,91,131,75},{122,119,120,117,116,121,123,118,115},{134,21,124,105,56,77,92,0,115,11,67},{1,48,117,69,58,106,125,87,78,12},{107,136,49,31,126,2,79,88,118,13,93},{130,127,129,124,125,126,133,132,128,131},{130,127,129,124,125,126,133,132,128,131},{130,127,129,124,125,126,133,132,128,131},{120,83,130,110,37,7,53,17,25,63,99,72},{85,122,39,54,20,27,10,113,139,102,65,91,131,75},{130,127,129,124,125,126,133,132,128,131},{130,127,129,124,125,126,133,132,128,131},{134,21,124,105,56,77,92,0,115,11,67},{138,134,135,136,140,137,139},{107,136,49,31,126,2,79,88,118,13,93},{109,119,50,34,96,15,137,61,80,5,23,42},{138,134,135,136,140,137,139},{85,122,39,54,20,27,10,113,139,102,65,91,131,75},{29,104,46,140,55,133,76,66,123}];
nr_cliques=141;
